p cnf 7230 17
-2622 -2624 3265 0
2622 -3265 0
-1920 -2636 -3270 0
-1918 -2206 -3268 0
-1916 -2606 -3266 0
1920 -3271 0
1918 -3269 0
1916 -3267 0
3270 3271 0
3268 3269 0
3266 3267 0
2636 -3271 0
2206 -3269 0
2606 -3267 0
1922 -3273 0
3264 3265 0
-3264 -3265 0
